p cnf 9 28
1 2 0
1 2 4 0
1 2 8 0
2 5 0
2 8 0
2 4 8 0
1 4 5 0
1 5 8 0
4 5 0
5 8 0
4 5 8 0
1 4 7 0
1 7 8 0
4 7 8 0
7 8 0
-1 3 0
-4 0
-7 9 0
1 -5 0
-1 5 0
1 2 0
-1 -2 0
4 5 0
-4 -5 0
7 8 0
-7 -8 0
7 0
9 0